n = 33 ; 
e = 288; 
E = [| 1, 2, 
| 1, 3, 
| 1, 4, 
| 1, 6, 
| 1, 7, 
| 1, 8, 
| 1, 11, 
| 1, 17, 
| 1, 19, 
| 1, 20, 
| 1, 21, 
| 1, 22, 
| 1, 25, 
| 1, 26, 
| 1, 27, 
| 1, 28, 
| 1, 29, 
| 2, 3, 
| 2, 5, 
| 2, 6, 
| 2, 12, 
| 2, 13, 
| 2, 14, 
| 2, 15, 
| 2, 17, 
| 2, 18, 
| 2, 19, 
| 2, 20, 
| 2, 22, 
| 2, 23, 
| 2, 24, 
| 2, 25, 
| 2, 27, 
| 2, 28, 
| 2, 29, 
| 2, 30, 
| 2, 32, 
| 2, 33, 
| 3, 5, 
| 3, 6, 
| 3, 9, 
| 3, 12, 
| 3, 13, 
| 3, 16, 
| 3, 18, 
| 3, 19, 
| 3, 21, 
| 3, 22, 
| 3, 25, 
| 3, 27, 
| 3, 29, 
| 3, 32, 
| 4, 8, 
| 4, 9, 
| 4, 12, 
| 4, 15, 
| 4, 17, 
| 4, 21, 
| 4, 25, 
| 4, 29, 
| 4, 30, 
| 4, 32, 
| 5, 13, 
| 5, 14, 
| 5, 15, 
| 5, 16, 
| 5, 17, 
| 5, 21, 
| 5, 22, 
| 5, 23, 
| 5, 25, 
| 5, 26, 
| 5, 27, 
| 5, 32, 
| 5, 33, 
| 6, 7, 
| 6, 8, 
| 6, 13, 
| 6, 15, 
| 6, 16, 
| 6, 17, 
| 6, 21, 
| 6, 23, 
| 6, 26, 
| 6, 27, 
| 6, 28, 
| 6, 29, 
| 6, 31, 
| 6, 32, 
| 6, 33, 
| 7, 8, 
| 7, 9, 
| 7, 11, 
| 7, 12, 
| 7, 14, 
| 7, 17, 
| 7, 18, 
| 7, 20, 
| 7, 23, 
| 7, 26, 
| 7, 30, 
| 7, 33, 
| 8, 10, 
| 8, 11, 
| 8, 12, 
| 8, 13, 
| 8, 16, 
| 8, 17, 
| 8, 18, 
| 8, 19, 
| 8, 21, 
| 8, 22, 
| 8, 23, 
| 8, 24, 
| 8, 25, 
| 8, 26, 
| 8, 29, 
| 8, 32, 
| 9, 11, 
| 9, 13, 
| 9, 14, 
| 9, 15, 
| 9, 16, 
| 9, 17, 
| 9, 22, 
| 9, 24, 
| 9, 25, 
| 9, 27, 
| 9, 30, 
| 9, 31, 
| 9, 32, 
| 9, 33, 
| 10, 11, 
| 10, 15, 
| 10, 17, 
| 10, 20, 
| 10, 23, 
| 10, 25, 
| 10, 28, 
| 10, 29, 
| 10, 30, 
| 10, 32, 
| 11, 12, 
| 11, 13, 
| 11, 14, 
| 11, 16, 
| 11, 17, 
| 11, 18, 
| 11, 19, 
| 11, 20, 
| 11, 21, 
| 11, 22, 
| 11, 24, 
| 11, 26, 
| 11, 27, 
| 11, 28, 
| 11, 29, 
| 11, 30, 
| 11, 31, 
| 11, 32, 
| 12, 13, 
| 12, 14, 
| 12, 15, 
| 12, 16, 
| 12, 17, 
| 12, 20, 
| 12, 23, 
| 12, 26, 
| 12, 27, 
| 12, 28, 
| 12, 31, 
| 12, 33, 
| 13, 14, 
| 13, 15, 
| 13, 17, 
| 13, 18, 
| 13, 19, 
| 13, 20, 
| 13, 21, 
| 13, 22, 
| 13, 23, 
| 13, 25, 
| 13, 27, 
| 13, 28, 
| 13, 29, 
| 13, 30, 
| 13, 32, 
| 13, 33, 
| 14, 16, 
| 14, 17, 
| 14, 18, 
| 14, 20, 
| 14, 24, 
| 14, 25, 
| 14, 27, 
| 15, 16, 
| 15, 18, 
| 15, 21, 
| 15, 23, 
| 15, 24, 
| 15, 25, 
| 15, 26, 
| 15, 33, 
| 16, 18, 
| 16, 21, 
| 16, 25, 
| 16, 26, 
| 16, 27, 
| 16, 28, 
| 16, 29, 
| 16, 30, 
| 16, 33, 
| 17, 18, 
| 17, 21, 
| 17, 23, 
| 17, 24, 
| 17, 26, 
| 17, 27, 
| 17, 28, 
| 17, 29, 
| 17, 32, 
| 17, 33, 
| 18, 19, 
| 18, 22, 
| 18, 24, 
| 18, 26, 
| 18, 27, 
| 18, 32, 
| 19, 20, 
| 19, 21, 
| 19, 22, 
| 19, 23, 
| 19, 25, 
| 19, 27, 
| 19, 30, 
| 20, 21, 
| 20, 23, 
| 20, 24, 
| 20, 25, 
| 20, 27, 
| 20, 29, 
| 20, 30, 
| 20, 31, 
| 20, 33, 
| 21, 24, 
| 21, 25, 
| 21, 26, 
| 21, 27, 
| 21, 28, 
| 21, 31, 
| 22, 27, 
| 22, 28, 
| 22, 29, 
| 22, 30, 
| 22, 31, 
| 22, 33, 
| 23, 25, 
| 23, 28, 
| 23, 30, 
| 23, 32, 
| 23, 33, 
| 24, 25, 
| 24, 26, 
| 24, 27, 
| 24, 28, 
| 24, 31, 
| 25, 26, 
| 25, 30, 
| 25, 33, 
| 26, 27, 
| 26, 29, 
| 26, 31, 
| 26, 32, 
| 27, 28, 
| 27, 29, 
| 27, 31, 
| 28, 29, 
| 28, 30, 
| 28, 31, 
| 28, 32, 
| 28, 33, 
| 29, 31, 
| 29, 32, 
| 29, 33, 
| 30, 32, 
| 31, 32, 
| 31, 33, 
| 32, 33, 
|]; 
